src/asp/benchmarks/medium6.lp
citta(umbertide).
citta(magione).
citta(todi).
citta(spoleto).
citta(amelia).
citta(bastia_umbra).
citta(terni).
citta(foligno).
citta(perugia).
citta(marsciano).

richiesta(umbertide, strade, 84).
richiesta(umbertide, fiumi, 159).
richiesta(umbertide, scuole, 80).
richiesta(umbertide, parchi, 34).
richiesta(umbertide, energia, 129).

richiesta(magione, strade, 84).
richiesta(magione, fiumi, 74).
richiesta(magione, scuole, 645).
richiesta(magione, parchi, 126).
richiesta(magione, energia, 298).

richiesta(todi, strade, 243).
richiesta(todi, fiumi, 44).
richiesta(todi, scuole, 382).
richiesta(todi, parchi, 34).
richiesta(todi, energia, 176).

richiesta(spoleto, strade, 169).
richiesta(spoleto, fiumi, 243).
richiesta(spoleto, scuole, 249).
richiesta(spoleto, parchi, 127).
richiesta(spoleto, energia, 965).

richiesta(amelia, strade, 101).
richiesta(amelia, fiumi, 271).
richiesta(amelia, scuole, 147).
richiesta(amelia, parchi, 6).
richiesta(amelia, energia, 70).

richiesta(bastia_umbra, strade, 34).
richiesta(bastia_umbra, fiumi, 36).
richiesta(bastia_umbra, scuole, 13).
richiesta(bastia_umbra, parchi, 246).
richiesta(bastia_umbra, energia, 416).

richiesta(terni, strade, 182).
richiesta(terni, fiumi, 339).
richiesta(terni, scuole, 117).
richiesta(terni, parchi, 238).
richiesta(terni, energia, 110).

richiesta(foligno, strade, 148).
richiesta(foligno, fiumi, 269).
richiesta(foligno, scuole, 88).
richiesta(foligno, parchi, 49).
richiesta(foligno, energia, 104).

richiesta(perugia, strade, 529).
richiesta(perugia, fiumi, 241).
richiesta(perugia, scuole, 101).
richiesta(perugia, parchi, 15).
richiesta(perugia, energia, 231).

richiesta(marsciano, strade, 146).
richiesta(marsciano, fiumi, 203).
richiesta(marsciano, scuole, 449).
richiesta(marsciano, parchi, 376).
richiesta(marsciano, energia, 350).

